<number of tasks>
50

<cycle time>
1000

<order strength>
0.202


<task times>
1 187
2 276
3 172
4 99
5 81
6 98
7 172
8 107
9 28
10 80
11 155
12 69
13 94
14 76
15 123
16 146
17 118
18 70
19 93
20 222
21 120
22 195
23 69
24 215
25 27
26 92
27 300
28 168
29 223
30 120
31 189
32 123
33 99
34 73
35 87
36 201
37 163
38 93
39 147
40 104
41 62
42 216
43 68
44 107
45 212
46 282
47 119
48 55
49 77
50 122

<precedence relations>
1,5
2,6
2,9
3,7
3,8
4,10
5,12
6,13
7,14
8,11
8,15
9,16
9,44
10,15
10,50
11,17
12,18
13,21
14,19
15,20
15,22
16,23
17,25
18,27
19,24
19,26
19,31
19,32
20,28
22,29
23,30
24,33
25,37
26,34
27,37
28,35
29,36
30,38
33,40
34,39
35,41
36,42
37,43
37,44
39,46
40,45
41,47
42,46
43,48
43,49
44,50

<end>
